n = 20;
l = 100;
s = 150;
r = 200;
f = 100;
forbidden = [| 16, 5
	| 2, 16
	| 1, 6
	| 2, 4
	| 2, 15
	| 7, 8
	| 9, 5
	| 8, 5
	| 12, 6
	| 11, 3
	| 1, 8
	| 6, 1
	| 15, 12
	| 20, 2
	| 11, 1
	| 10, 2
	| 18, 9
	| 19, 9
	| 10, 17
	| 2, 18
	| 15, 2
	| 12, 10
	| 19, 4
	| 7, 18
	| 3, 8
	| 19, 8
	| 9, 20
	| 9, 11
	| 11, 4
	| 3, 7
	| 19, 16
	| 10, 13
	| 16, 6
	| 11, 6
	| 15, 14
	| 15, 16
	| 20, 17
	| 6, 13
	| 2, 3
	| 15, 15
	| 20, 8
	| 13, 8
	| 14, 10
	| 2, 7
	| 5, 14
	| 5, 10
	| 12, 2
	| 4, 6
	| 9, 10
	| 10, 20
	| 11, 20
	| 2, 8
	| 10, 18
	| 13, 5
	| 13, 2
	| 9, 18
	| 8, 4
	| 20, 11
	| 8, 13
	| 4, 8
	| 11, 7
	| 14, 20
	| 7, 5
	| 7, 1
	| 12, 7
	| 6, 16
	| 15, 18
	| 14, 12
	| 7, 11
	| 6, 19
	| 5, 18
	| 6, 2
	| 10, 6
	| 9, 14
	| 1, 16
	| 10, 8
	| 15, 11
	| 8, 16
	| 15, 5
	| 3, 16
	| 12, 13
	| 8, 18
	| 7, 13
	| 14, 1
	| 1, 9
	| 10, 16
	| 2, 5
	| 5, 6
	| 15, 1
	| 20, 10
	| 5, 13
	| 11, 11
	| 9, 8
	| 3, 20
	| 18, 6
	| 16, 10
	| 8, 7
	| 6, 11
	| 9, 16
	| 16, 19
	|];